data/CVRPLIB/Vrp-Set-XML100/instances/XML100_2214_19.vrp
NAME : XML100_2214_19
COMMENT : Generated by Queiroga, Sadykov, Uchoa, and Vidal (2021)
TYPE : CVRP
DIMENSION : 101
EDGE_WEIGHT_TYPE : EUC_2D
CAPACITY : 14
NODE_COORD_SECTION
1    500  500 
2    571  980 
3    771  803 
4    623  739 
5    334  882 
6    847  157 
7    714  827 
8    798  196 
9    661  646 
10   526  777 
11   374  928 
12   586  831 
13   366  575 
14   468  831 
15   212  929 
16   577  815 
17   791  149 
18   556  675 
19   459  935 
20   549  773 
21   719  659 
22   233  787 
23   211  936 
24   362  907 
25   190  584 
26   168  936 
27   731  804 
28   186  561 
29   216  948 
30   767  274 
31   968  748 
32   275  688 
33   821  200 
34   635  877 
35   353  722 
36   100  919 
37   144  953 
38   293  642 
39   854  737 
40   851  232 
41   717  844 
42   190  736 
43   479  965 
44   475  592 
45   307  633 
46   815  839 
47   759  761 
48   428  532 
49   806  736 
50   821  5   
51   525  873 
52   258  595 
53   264  631 
54   733  821 
55   458  685 
56   740  892 
57   717  891 
58   251  912 
59   338  703 
60   914  670 
61   253  998 
62   301  838 
63   807  193 
64   263  920 
65   190  939 
66   376  664 
67   148  649 
68   638  735 
69   143  444 
70   618  654 
71   281  910 
72   539  808 
73   771  901 
74   574  629 
75   876  155 
76   495  729 
77   127  964 
78   550  860 
79   514  661 
80   864  912 
81   535  671 
82   97   972 
83   560  617 
84   626  210 
85   765  240 
86   845  397 
87   345  913 
88   495  636 
89   332  663 
90   798  76  
91   846  798 
92   486  330 
93   700  360 
94   335  548 
95   182  771 
96   791  659 
97   477  821 
98   563  715 
99   299  640 
100  789  931 
101  705  959 
DEMAND_SECTION
1    0   
2    1   
3    1   
4    1   
5    1   
6    1   
7    1   
8    1   
9    1   
10   1   
11   1   
12   1   
13   1   
14   1   
15   1   
16   1   
17   1   
18   1   
19   1   
20   1   
21   1   
22   1   
23   1   
24   1   
25   1   
26   1   
27   1   
28   1   
29   1   
30   1   
31   1   
32   1   
33   1   
34   1   
35   1   
36   1   
37   1   
38   1   
39   1   
40   1   
41   1   
42   1   
43   1   
44   1   
45   1   
46   1   
47   1   
48   1   
49   1   
50   1   
51   1   
52   1   
53   1   
54   1   
55   1   
56   1   
57   1   
58   1   
59   1   
60   1   
61   1   
62   1   
63   1   
64   1   
65   1   
66   1   
67   1   
68   1   
69   1   
70   1   
71   1   
72   1   
73   1   
74   1   
75   1   
76   1   
77   1   
78   1   
79   1   
80   1   
81   1   
82   1   
83   1   
84   1   
85   1   
86   1   
87   1   
88   1   
89   1   
90   1   
91   1   
92   1   
93   1   
94   1   
95   1   
96   1   
97   1   
98   1   
99   1   
100  1   
101  1   
DEPOT_SECTION
1
-1
EOF
