data/CVRPLIB/Vrp-Set-XML100/solutions/XML100_2214_19.sol
Route #1: 91 83 16 89 49 74 5 39 32 62 7 84 29 92
Route #2: 70 63 57 60 28 22 14 64 25 36 76 81 35 21
Route #3: 87 78 80 17 97 19 15 11 77 50 13 96 75 54
Route #4: 3 33 100 56 55 72 99 79 45 90 38 30 59 85
Route #5: 47 43
Route #6: 8 20 95 48 46 2 26 53 40 6 67 69 73 82
Route #7: 9 71 1 42 18 10 23 86 4 61 34 58 88 65
Route #8: 68 27 24 66 41 94 31 37 98 44 52 51 93 12
Cost 9387
